0000000000000000
0011111111000000
0000000001000000
0000000001000000
0000000001000000
0000000001000000
0000000111000000
0000001101000000
0000011001000000
0000110001000000
0001100001000000
0011000001000000
0000000000000000
0000000000000000
0000000000000000
0000000000000000